peakDumbCharging = 14800; 
Machine = anon_enum(16); 
machineSpeed = [3700,3700,3700,3700,3700,3700,3700,3700,3700,3700,3700,3700,3700,3700,3700,3700]; 
machineLoad = [3700,3700,3700,3700,3700,3700,3700,3700,3700,3700,3700,3700,3700,3700,3700,3700]; 
Car = anon_enum(19); 
demandCar = [1960,25080,8360,30200,3920,3760,7680,4440,3640,18040,5480,5040,8600,8320,5000,8440,27840,520,12920]; 
arrivalCar = [82,78,74,71,69,69,68,66,65,60,59,54,49,46,45,39,34,34,31]; 
departureCar = [83,86,77,85,71,72,73,69,67,67,62,60,56,50,48,45,47,35,35]; 
